language Essence 1.3

letting class be function(1 --> 1, 2 --> 1, 3 --> 2)
letting deck_length be 23
letting deck_width be 47
letting length be function(1 --> 20, 2 --> 22, 3 --> 4)
letting n_classes be 2
letting n_containers be 3
letting separation be function()
letting width be function(1 --> 1, 2 --> 1, 3 --> 22)
